7559
6591
8889
1095
4599
484
8222
1520
4602
3150
6843
3303
6322
512
4350
8277
6962
5386
9725
8984
1822
2076
8842
9708
2760
2049
8860
1261
5576
8423
5356
4503
2922
3033
2350
8140
9831
5655
8595
7402
6496
7159
883
2648
6036
4598
9550
3350
3387
3310
2968
